CMD:
./solvers/bin/cadical --plain --no-reduce -t 1600 ./data/cnfs//viselevatorp3/viselevatorp3.93.cnf

c --- [ banner ] -------------------------------------------------------------
c 
c CaDiCaL SAT Solver
c Copyright (c) 2016-2024
c A. Biere, M. Fleury, N. Froleyks, K. Fazekas, F. Pollitt, T. Faller
c JKU Linz, University of Freiburg, TU Wien
c 
c Version 2.1.3 5296d3d2a9bf48c154ab2acb5e44625776d821bf
c g++ (Gentoo 12.3.1_p20230526 p2) 12.3.1 20230526 -Wall -Wextra -O3 -DNDEBUG
c Sat Aug 9 07:26:21 PDT 2025 Linux cedar2.int.cedar.computecanada.ca 5.14.0-362.24.2.el9_3.x86_64 x86_64
c 
c --- [ limit ] --------------------------------------------------------------
c 
c setting time limit to 1600 seconds real time (due to '-t 1600')
c 
c --- [ parsing input ] ------------------------------------------------------
c 
c reading DIMACS file from './data/cnfs//viselevatorp3/viselevatorp3.93.cnf'
c opening file to read './data/cnfs//viselevatorp3/viselevatorp3.93.cnf'
c found 'p cnf 108044 315880' header
c parsed 315880 clauses in 0.05 seconds process time
c 
c --- [ options ] ------------------------------------------------------------
c 
c   --compact=false                (different from default 'true')
c   --decompose=false              (different from default 'true')
c   --deduplicate=false            (different from default 'true')
c   --elim=false                   (different from default 'true')
c   --probe=false                  (different from default 'true')
c   --reduce=false                 (different from default 'true')
c   --subsume=false                (different from default 'true')
c   --ternary=false                (different from default 'true')
c   --transred=false               (different from default 'true')
c   --vivify=false                 (different from default 'true')
c 
c --- [ solving ] ------------------------------------------------------------
c 
c time measured in process time since initialization
c 
c  seconds  reductions  redundant  irredundant
c         MB    restarts       trail       variables
c          level   conflicts       glue          remaining
c 
c *  0.05 53  0 0   0    0    0  0% 0 310848 102703 95%
c {  0.05 53  0 0   0    0    0  0% 0 310848 102703 95%
c i  0.06 54 66 0  10  323  283  8% 2 310848 102687 95%
c }  0.12 54 202 0  11 1001  929 17% 2 310848 102687 95%
c [  0.12 54  0 0  11 1001  929  0% 0 310848 102687 95%
c O  0.12 54 42 0  11 1002  930  8% 2 310848 102687 95%
c i  0.16 55 823 0  11 1188 1115 55% 3 310848 102580 95%
c i  0.16 55 839 0  11 1193 1118 56% 3 310848 102521 95%
c i  0.16 55 844 0  11 1195 1119 57% 3 310848 102487 95%
c i  0.16 55 861 0  11 1201 1124 58% 3 310848 102459 95%
c i  0.16 55 871 0  11 1205 1127 58% 3 310848 102366 95%
c i  0.16 55 880 0  11 1209 1130 59% 3 310848 102335 95%
c i  0.16 55 920 0  11 1233 1149 61% 3 310848 102332 95%
c i  0.16 55 921 0  11 1234 1149 61% 3 310848 102317 95%
c i  0.16 55 927 0  11 1241 1151 62% 3 310848 102288 95%
c i  0.16 55 932 0  11 1245 1154 62% 3 310848 102258 95%
c i  0.16 55 936 0  11 1249 1156 63% 2 310848 102226 95%
c i  0.16 55 940 0  11 1253 1159 63% 2 310848 102195 95%
c i  0.16 55 943 0  11 1257 1161 63% 2 310848 102164 95%
c i  0.16 55 952 0  11 1271 1171 64% 2 310848 102120 95%
c 
c  seconds   reductions  redundant  irredundant
c         MB     restarts       trail       variables
c           level   conflicts       glue          remaining
c 
c i  0.16 55 959 0  11 1290 1188 64% 2 310848 102103 95%
c i  0.16 55 965 0  11 1376 1261 65% 2 310848 102102 95%
c i  0.17 55 960 0  11 1416 1293 64% 2 310848 102099 94%
c i  0.17 55 960 0  11 1421 1296 64% 2 310848 102056 94%
c i  0.17 55 959 0  11 1424 1298 64% 2 310848 101993 94%
c i  0.17 55 959 0  11 1427 1300 64% 2 310848 101963 94%
c i  0.17 55 958 0  11 1431 1303 64% 2 310848 101949 94%
c i  0.17 55 955 0  11 1446 1314 64% 2 310848 101948 94%
c i  0.17 55 953 0  11 1454 1321 64% 2 310848 101918 94%
c i  0.17 55 949 0  11 1467 1332 64% 2 310848 101904 94%
c i  0.17 55 946 0  11 1479 1342 64% 2 310848 101873 94%
c i  0.17 55 945 0  11 1482 1344 64% 2 310848 101840 94%
c i  0.17 55 943 0  11 1488 1349 63% 2 310848 101826 94%
c i  0.17 55 940 0  11 1498 1354 63% 2 310848 101795 94%
c i  0.17 55 927 0  11 1533 1383 62% 2 310848 101781 94%
c i  0.17 55 916 0  11 1561 1403 62% 2 310848 101734 94%
c i  0.17 55 910 0  11 1574 1414 61% 2 310848 101688 94%
c i  0.17 55 907 0  11 1580 1419 61% 2 310848 101658 94%
c i  0.17 55 904 0  11 1588 1426 61% 2 310848 101657 94%
c i  0.17 55 900 0  11 1598 1432 61% 2 310848 101627 94%
c 
c  seconds   reductions  redundant  irredundant
c         MB     restarts       trail       variables
c           level   conflicts       glue          remaining
c 
c i  0.17 55 890 0  11 1620 1447 60% 2 310848 101613 94%
c i  0.17 55 887 0  11 1627 1453 60% 2 310848 101612 94%
c i  0.18 55 768 0  11 1857 1650 53% 2 310848 101535 94%
c i  0.18 55 767 0  11 1860 1652 53% 2 310848 101349 94%
c i  0.18 55 765 0  11 1863 1654 53% 2 310848 101348 94%
c i  0.18 55 765 0  11 1864 1654 53% 2 310848 101317 94%
c i  0.18 55 760 0  11 1873 1661 53% 2 310848 101302 94%
c i  0.18 55 757 0  11 1881 1664 52% 2 310848 101301 94%
c i  0.18 55 751 0  11 1896 1673 52% 2 310848 101256 94%
c i  0.18 55 746 0  11 1907 1682 52% 2 310848 101241 94%
c i  0.18 55 744 0  11 1910 1683 51% 2 310848 101209 94%
c i  0.18 55 722 0  11 1950 1715 50% 2 310848 101196 94%
c i  0.18 55 712 0  11 1969 1732 50% 2 310848 101179 94%
c i  0.19 55 636 0  12 2105 1846 45% 2 310848 101073 94%
c ]  0.19 55 635 0  12 2108 1846 45% 2 310848 100988 93%
c 0  0.19 55 635 0  12 2108 1846 45% 2 310848 100988 93%
c 
c --- [ result ] -------------------------------------------------------------
c 
s UNSATISFIABLE
c 
c --- [ run-time profiling ] -------------------------------------------------
c 
c process time taken by individual solving procedures
c (percentage relative to process time for solving)
c 
c         0.14   99.93% search
c         0.07   52.21% unstable
c         0.07   46.87% stable
c         0.05   33.56% parse
c         0.00    0.83% lucky
c         0.00    0.00% simplify
c   =================================
c         0.14   74.68% solve
c 
c last line shows process time for solving
c (percentage relative to total process time)
c 
c --- [ statistics ] ---------------------------------------------------------
c 
c chronological:              1192        56.55 %  of conflicts
c conflicts:                  2108     15007.83    per second
c decisions:                 18197    129552.90    per second
c fixed:                      7056         6.53 %  of all variables
c learned:                    1990        94.40 %  per conflict
c learned_lits:              11462       100.00 %  learned literals
c minimized:                     0         0.00 %  learned literals
c shrunken:                   1312        11.45 %  learned literals
c minishrunken:                988         8.62 %  learned literals
c otfs:                         59         2.80 %  of conflict
c propagations:            1334422         9.50 M  per second
c rephased:                      1      2108.00    interval
c restarts:                     12       175.67    interval
c stabilizing:                   1        52.51 %  of conflicts
c subsumed:                     93         0.03 %  of all clauses
c strengthened:                 58         0.02 %  of all clauses
c 
c seconds are measured in process time for solving
c 
c --- [ resources ] ----------------------------------------------------------
c 
c total process time since initialization:         0.19    seconds
c total real time since initialization:            0.19    seconds
c maximum resident set size of process:           54.18    MB
c 
c --- [ shutting down ] ------------------------------------------------------
c 
c exit 20
